\* NFL *\
Maximize
Objective: 19.05 CPT:93976_111540 + 7.8 CPT:93976_111876
 + 5.55 CPT:93976_119653 + 10.35 CPT:93976_12539 + 8.1 CPT:93976_12541
 + 1.65 CPT:93976_138820 + 0.3 CPT:93976_26038 + 18.6 CPT:93976_28744
 + 0.3 CPT:93976_29411 + 2.85 CPT:93976_29734 + 9.9 CPT:93976_38791
 + 10.05 CPT:93976_40845 + 3.75 CPT:93976_41997 + 8.475 CPT:93976_42046
 + 6.75 CPT:93976_52495 + 12.3 CPT:93976_52767 + 24.6 CPT:93976_53681
 + 9.9 CPT:93976_55987 + 5.1 CPT:93976_56265 + 2.85 CPT:93976_63717
 + 14.55 CPT:93976_80289 + 1.05 CPT:93976_86543 + 10.725 CPT:93976_86750
 + 7.875 CPT:93976_86780 + 27.675 CPT:93976_90572 + 17.1 CPT:93976_90573
 + 23.925 CPT:93976_90584 + 0.15 CPT:93976_91488 + 12.7 FLEX:93976_111540
 + 5.2 FLEX:93976_111876 + 3.7 FLEX:93976_119653 + 6.9 FLEX:93976_12539
 + 5.4 FLEX:93976_12541 + 1.1 FLEX:93976_138820 + 0.2 FLEX:93976_26038
 + 12.4 FLEX:93976_28744 + 0.2 FLEX:93976_29411 + 1.9 FLEX:93976_29734
 + 6.6 FLEX:93976_38791 + 6.7 FLEX:93976_40845 + 2.5 FLEX:93976_41997
 + 5.65 FLEX:93976_42046 + 4.5 FLEX:93976_52495 + 8.2 FLEX:93976_52767
 + 16.4 FLEX:93976_53681 + 6.6 FLEX:93976_55987 + 3.4 FLEX:93976_56265
 + 1.9 FLEX:93976_63717 + 9.7 FLEX:93976_80289 + 0.7 FLEX:93976_86543
 + 7.15 FLEX:93976_86750 + 5.25 FLEX:93976_86780 + 18.45 FLEX:93976_90572
 + 11.4 FLEX:93976_90573 + 15.95 FLEX:93976_90584 + 0.1 FLEX:93976_91488
Subject To
CPT_==_1: CPT:93976_111540 + CPT:93976_111876 + CPT:93976_119653
 + CPT:93976_12539 + CPT:93976_12541 + CPT:93976_138820 + CPT:93976_26038
 + CPT:93976_28744 + CPT:93976_29411 + CPT:93976_29734 + CPT:93976_38791
 + CPT:93976_40845 + CPT:93976_41997 + CPT:93976_42046 + CPT:93976_52495
 + CPT:93976_52767 + CPT:93976_53681 + CPT:93976_55987 + CPT:93976_56265
 + CPT:93976_63717 + CPT:93976_80289 + CPT:93976_86543 + CPT:93976_86750
 + CPT:93976_86780 + CPT:93976_90572 + CPT:93976_90573 + CPT:93976_90584
 + CPT:93976_91488 = 1
FLEX_==_4: FLEX:93976_111540 + FLEX:93976_111876 + FLEX:93976_119653
 + FLEX:93976_12539 + FLEX:93976_12541 + FLEX:93976_138820 + FLEX:93976_26038
 + FLEX:93976_28744 + FLEX:93976_29411 + FLEX:93976_29734 + FLEX:93976_38791
 + FLEX:93976_40845 + FLEX:93976_41997 + FLEX:93976_42046 + FLEX:93976_52495
 + FLEX:93976_52767 + FLEX:93976_53681 + FLEX:93976_55987 + FLEX:93976_56265
 + FLEX:93976_63717 + FLEX:93976_80289 + FLEX:93976_86543 + FLEX:93976_86750
 + FLEX:93976_86780 + FLEX:93976_90572 + FLEX:93976_90573 + FLEX:93976_90584
 + FLEX:93976_91488 = 4
Max_4_players_from_one_team_MIA: CPT:93976_12539 + CPT:93976_138820
 + CPT:93976_26038 + CPT:93976_28744 + CPT:93976_41997 + CPT:93976_42046
 + CPT:93976_52495 + CPT:93976_52767 + CPT:93976_53681 + CPT:93976_63717
 + CPT:93976_86543 + CPT:93976_86780 + CPT:93976_90572 + CPT:93976_90573
 + CPT:93976_91488 + FLEX:93976_12539 + FLEX:93976_138820 + FLEX:93976_26038
 + FLEX:93976_28744 + FLEX:93976_41997 + FLEX:93976_42046 + FLEX:93976_52495
 + FLEX:93976_52767 + FLEX:93976_53681 + FLEX:93976_63717 + FLEX:93976_86543
 + FLEX:93976_86780 + FLEX:93976_90572 + FLEX:93976_90573 + FLEX:93976_91488
 <= 4
Max_4_players_from_one_team_NE: CPT:93976_111540 + CPT:93976_111876
 + CPT:93976_119653 + CPT:93976_12541 + CPT:93976_29411 + CPT:93976_29734
 + CPT:93976_38791 + CPT:93976_40845 + CPT:93976_55987 + CPT:93976_56265
 + CPT:93976_80289 + CPT:93976_86750 + CPT:93976_90584 + FLEX:93976_111540
 + FLEX:93976_111876 + FLEX:93976_119653 + FLEX:93976_12541 + FLEX:93976_29411
 + FLEX:93976_29734 + FLEX:93976_38791 + FLEX:93976_40845 + FLEX:93976_55987
 + FLEX:93976_56265 + FLEX:93976_80289 + FLEX:93976_86750 + FLEX:93976_90584
 <= 4
Max_Salary: 14000 CPT:93976_111540 + 7500 CPT:93976_111876
 + 5000 CPT:93976_119653 + 9500 CPT:93976_12539 + 8500 CPT:93976_12541
 + 5500 CPT:93976_138820 + 5500 CPT:93976_26038 + 12000 CPT:93976_28744
 + 5000 CPT:93976_29411 + 6500 CPT:93976_29734 + 8000 CPT:93976_38791
 + 10000 CPT:93976_40845 + 8000 CPT:93976_41997 + 7000 CPT:93976_42046
 + 7500 CPT:93976_52495 + 9000 CPT:93976_52767 + 17000 CPT:93976_53681
 + 9000 CPT:93976_55987 + 7000 CPT:93976_56265 + 5500 CPT:93976_63717
 + 11000 CPT:93976_80289 + 6000 CPT:93976_86543 + 8500 CPT:93976_86750
 + 6500 CPT:93976_86780 + 16500 CPT:93976_90572 + 13500 CPT:93976_90573
 + 15500 CPT:93976_90584 + 5000 CPT:93976_91488 + 14000 FLEX:93976_111540
 + 7500 FLEX:93976_111876 + 5000 FLEX:93976_119653 + 9500 FLEX:93976_12539
 + 8500 FLEX:93976_12541 + 5500 FLEX:93976_138820 + 5500 FLEX:93976_26038
 + 12000 FLEX:93976_28744 + 5000 FLEX:93976_29411 + 6500 FLEX:93976_29734
 + 8000 FLEX:93976_38791 + 10000 FLEX:93976_40845 + 8000 FLEX:93976_41997
 + 7000 FLEX:93976_42046 + 7500 FLEX:93976_52495 + 9000 FLEX:93976_52767
 + 17000 FLEX:93976_53681 + 9000 FLEX:93976_55987 + 7000 FLEX:93976_56265
 + 5500 FLEX:93976_63717 + 11000 FLEX:93976_80289 + 6000 FLEX:93976_86543
 + 8500 FLEX:93976_86750 + 6500 FLEX:93976_86780 + 16500 FLEX:93976_90572
 + 13500 FLEX:93976_90573 + 15500 FLEX:93976_90584 + 5000 FLEX:93976_91488
 <= 60000
Min_Salary: 14000 CPT:93976_111540 + 7500 CPT:93976_111876
 + 5000 CPT:93976_119653 + 9500 CPT:93976_12539 + 8500 CPT:93976_12541
 + 5500 CPT:93976_138820 + 5500 CPT:93976_26038 + 12000 CPT:93976_28744
 + 5000 CPT:93976_29411 + 6500 CPT:93976_29734 + 8000 CPT:93976_38791
 + 10000 CPT:93976_40845 + 8000 CPT:93976_41997 + 7000 CPT:93976_42046
 + 7500 CPT:93976_52495 + 9000 CPT:93976_52767 + 17000 CPT:93976_53681
 + 9000 CPT:93976_55987 + 7000 CPT:93976_56265 + 5500 CPT:93976_63717
 + 11000 CPT:93976_80289 + 6000 CPT:93976_86543 + 8500 CPT:93976_86750
 + 6500 CPT:93976_86780 + 16500 CPT:93976_90572 + 13500 CPT:93976_90573
 + 15500 CPT:93976_90584 + 5000 CPT:93976_91488 + 14000 FLEX:93976_111540
 + 7500 FLEX:93976_111876 + 5000 FLEX:93976_119653 + 9500 FLEX:93976_12539
 + 8500 FLEX:93976_12541 + 5500 FLEX:93976_138820 + 5500 FLEX:93976_26038
 + 12000 FLEX:93976_28744 + 5000 FLEX:93976_29411 + 6500 FLEX:93976_29734
 + 8000 FLEX:93976_38791 + 10000 FLEX:93976_40845 + 8000 FLEX:93976_41997
 + 7000 FLEX:93976_42046 + 7500 FLEX:93976_52495 + 9000 FLEX:93976_52767
 + 17000 FLEX:93976_53681 + 9000 FLEX:93976_55987 + 7000 FLEX:93976_56265
 + 5500 FLEX:93976_63717 + 11000 FLEX:93976_80289 + 6000 FLEX:93976_86543
 + 8500 FLEX:93976_86750 + 6500 FLEX:93976_86780 + 16500 FLEX:93976_90572
 + 13500 FLEX:93976_90573 + 15500 FLEX:93976_90584 + 5000 FLEX:93976_91488
 >= 54000
No_player_in_both_CPT_and_FLEX__("de'von_achane",_'FLEX',_'MIA'),_("de'von_achane",_'CPT',_'MIA')_:
 CPT:93976_138820 + FLEX:93976_138820 <= 1
No_player_in_both_CPT_and_FLEX__('alec_ingold',_'FLEX',_'MIA'),_('alec_ingold',_'CPT',_'MIA')_:
 CPT:93976_63717 + FLEX:93976_63717 <= 1
No_player_in_both_CPT_and_FLEX__('braxton_berrios',_'FLEX',_'MIA'),_('braxton_berrios',_'CPT',_'MIA')_:
 CPT:93976_52495 + FLEX:93976_52495 <= 1
No_player_in_both_CPT_and_FLEX__('chad_ryland',_'FLEX',_'NE'),_('chad_ryland',_'CPT',_'NE')_:
 CPT:93976_86750 + FLEX:93976_86750 <= 1
No_player_in_both_CPT_and_FLEX__('chris_brooks',_'FLEX',_'MIA'),_('chris_brooks',_'CPT',_'MIA')_:
 CPT:93976_91488 + FLEX:93976_91488 <= 1
No_player_in_both_CPT_and_FLEX__('demario_douglas',_'FLEX',_'NE'),_('demario_douglas',_'CPT',_'NE')_:
 CPT:93976_111876 + FLEX:93976_111876 <= 1
No_player_in_both_CPT_and_FLEX__('durham_smythe',_'FLEX',_'MIA'),_('durham_smythe',_'CPT',_'MIA')_:
 CPT:93976_42046 + FLEX:93976_42046 <= 1
No_player_in_both_CPT_and_FLEX__('erik_ezukanma',_'FLEX',_'MIA'),_('erik_ezukanma',_'CPT',_'MIA')_:
 CPT:93976_86543 + FLEX:93976_86543 <= 1
No_player_in_both_CPT_and_FLEX__('ezekiel_elliott',_'FLEX',_'NE'),_('ezekiel_elliott',_'CPT',_'NE')_:
 CPT:93976_38791 + FLEX:93976_38791 <= 1
No_player_in_both_CPT_and_FLEX__('hunter_henry',_'FLEX',_'NE'),_('hunter_henry',_'CPT',_'NE')_:
 CPT:93976_40845 + FLEX:93976_40845 <= 1
No_player_in_both_CPT_and_FLEX__('jason_sanders',_'FLEX',_'MIA'),_('jason_sanders',_'CPT',_'MIA')_:
 CPT:93976_52767 + FLEX:93976_52767 <= 1
No_player_in_both_CPT_and_FLEX__('jaylen_waddle',_'FLEX',_'MIA'),_('jaylen_waddle',_'CPT',_'MIA')_:
 CPT:93976_90573 + FLEX:93976_90573 <= 1
No_player_in_both_CPT_and_FLEX__('juju_smith#schuster',_'FLEX',_'NE'),_('juju_smith#schuster',_'CPT',_'NE')_:
 CPT:93976_55987 + FLEX:93976_55987 <= 1
No_player_in_both_CPT_and_FLEX__('kayshon_boutte',_'FLEX',_'NE'),_('kayshon_boutte',_'CPT',_'NE')_:
 CPT:93976_119653 + FLEX:93976_119653 <= 1
No_player_in_both_CPT_and_FLEX__('kendrick_bourne',_'FLEX',_'NE'),_('kendrick_bourne',_'CPT',_'NE')_:
 CPT:93976_80289 + FLEX:93976_80289 <= 1
No_player_in_both_CPT_and_FLEX__('mac_jones',_'FLEX',_'NE'),_('mac_jones',_'CPT',_'NE')_:
 CPT:93976_90584 + FLEX:93976_90584 <= 1
No_player_in_both_CPT_and_FLEX__('miami_dolphins',_'FLEX',_'MIA'),_('miami_dolphins',_'CPT',_'MIA')_:
 CPT:93976_12539 + FLEX:93976_12539 <= 1
No_player_in_both_CPT_and_FLEX__('mike_gesicki',_'FLEX',_'NE'),_('mike_gesicki',_'CPT',_'NE')_:
 CPT:93976_56265 + FLEX:93976_56265 <= 1
No_player_in_both_CPT_and_FLEX__('new_england_patriots',_'FLEX',_'NE'),_('new_england_patriots',_'CPT',_'NE')_:
 CPT:93976_12541 + FLEX:93976_12541 <= 1
No_player_in_both_CPT_and_FLEX__('pharaoh_brown',_'FLEX',_'NE'),_('pharaoh_brown',_'CPT',_'NE')_:
 CPT:93976_29411 + FLEX:93976_29411 <= 1
No_player_in_both_CPT_and_FLEX__('raheem_mostert',_'FLEX',_'MIA'),_('raheem_mostert',_'CPT',_'MIA')_:
 CPT:93976_28744 + FLEX:93976_28744 <= 1
No_player_in_both_CPT_and_FLEX__('rhamondre_stevenson',_'FLEX',_'NE'),_('rhamondre_stevenson',_'CPT',_'NE')_:
 CPT:93976_111540 + FLEX:93976_111540 <= 1
No_player_in_both_CPT_and_FLEX__('river_cracraft',_'FLEX',_'MIA'),_('river_cracraft',_'CPT',_'MIA')_:
 CPT:93976_41997 + FLEX:93976_41997 <= 1
No_player_in_both_CPT_and_FLEX__('salvon_ahmed',_'FLEX',_'MIA'),_('salvon_ahmed',_'CPT',_'MIA')_:
 CPT:93976_86780 + FLEX:93976_86780 <= 1
No_player_in_both_CPT_and_FLEX__('tua_tagovailoa',_'FLEX',_'MIA'),_('tua_tagovailoa',_'CPT',_'MIA')_:
 CPT:93976_90572 + FLEX:93976_90572 <= 1
No_player_in_both_CPT_and_FLEX__('ty_montgomery_ii',_'FLEX',_'NE'),_('ty_montgomery_ii',_'CPT',_'NE')_:
 CPT:93976_29734 + FLEX:93976_29734 <= 1
No_player_in_both_CPT_and_FLEX__('tyler_kroft',_'FLEX',_'MIA'),_('tyler_kroft',_'CPT',_'MIA')_:
 CPT:93976_26038 + FLEX:93976_26038 <= 1
No_player_in_both_CPT_and_FLEX__('tyreek_hill',_'FLEX',_'MIA'),_('tyreek_hill',_'CPT',_'MIA')_:
 CPT:93976_53681 + FLEX:93976_53681 <= 1
Binaries
CPT:93976_111540
CPT:93976_111876
CPT:93976_119653
CPT:93976_12539
CPT:93976_12541
CPT:93976_138820
CPT:93976_26038
CPT:93976_28744
CPT:93976_29411
CPT:93976_29734
CPT:93976_38791
CPT:93976_40845
CPT:93976_41997
CPT:93976_42046
CPT:93976_52495
CPT:93976_52767
CPT:93976_53681
CPT:93976_55987
CPT:93976_56265
CPT:93976_63717
CPT:93976_80289
CPT:93976_86543
CPT:93976_86750
CPT:93976_86780
CPT:93976_90572
CPT:93976_90573
CPT:93976_90584
CPT:93976_91488
FLEX:93976_111540
FLEX:93976_111876
FLEX:93976_119653
FLEX:93976_12539
FLEX:93976_12541
FLEX:93976_138820
FLEX:93976_26038
FLEX:93976_28744
FLEX:93976_29411
FLEX:93976_29734
FLEX:93976_38791
FLEX:93976_40845
FLEX:93976_41997
FLEX:93976_42046
FLEX:93976_52495
FLEX:93976_52767
FLEX:93976_53681
FLEX:93976_55987
FLEX:93976_56265
FLEX:93976_63717
FLEX:93976_80289
FLEX:93976_86543
FLEX:93976_86750
FLEX:93976_86780
FLEX:93976_90572
FLEX:93976_90573
FLEX:93976_90584
FLEX:93976_91488
End
